Comps = {frontend0, frontend1, backend0, backend1, backend2, database0, database1};
mustComps = {frontend0, frontend1};
Flavs = {tiny, medium, large};
Nodes = {n1, n2, n3};
CRes = {CPU, RAM, storage, bwIn, bwOut};
NRes = {ssl, fwall, encr, avail, latency};
Flav = [{medium, large}, {medium, large}, {tiny, medium, large}, {tiny, medium, large}, {tiny, medium, large}, {large}, {large}];
Uses = [{backend0}, {backend0}, {backend0}, {backend0}, {}, {}, {}, {database1}, {database1}, {database0}, {database1}, {database1}, {database0}, {}, {}];
MAX_BOUND = 1000000;

worstBounds = [0, 0, 0, 0, 0, 0, 0, 0, 0, MAX_BOUND];
bestBounds = [MAX_BOUND - i | i in worstBounds];

comReq = array2d(CompFlavs, Res, [
  2, 394, 242, 519, 484, 1, 1, 0, 96, MAX_BOUND,
  4, 356, 312, 491, 203, 0, 1, 1, 97, MAX_BOUND,
  2, 203, 238, 725, 442, 0, 0, 1, 95, MAX_BOUND,
  2, 304, 315, 439, 821, 1, 0, 1, 96, MAX_BOUND,
  2, 263, 388, 764, 793, 1, 1, 0, 95, MAX_BOUND,
  4, 387, 382, 793, 433, 1, 1, 0, 97, MAX_BOUND,
  2, 441, 210, 872, 901, 1, 0, 0, 97, MAX_BOUND,
  2, 327, 201, 640, 397, 1, 1, 0, 95, MAX_BOUND,
  4, 334, 380, 299, 849, 0, 0, 0, 97, MAX_BOUND,
  2, 298, 406, 808, 393, 0, 0, 1, 95, MAX_BOUND,
  2, 433, 218, 204, 693, 1, 1, 1, 96, MAX_BOUND,
  8, 411, 330, 414, 226, 1, 0, 1, 95, MAX_BOUND,
  8, 248, 412, 688, 904, 1, 1, 1, 96, MAX_BOUND,
  2, 448, 376, 995, 782, 1, 1, 0, 97, MAX_BOUND,
  4, 433, 224, 612, 436, 1, 0, 1, 97, MAX_BOUND,
]);

nodeCap = array2d(Nodes0, Res, [bestBounds[r] | r in Res] ++ [
  32, 40187, 724382, 16086, 24132, 1, 1, 1, 99, 0,
  16, 116780, 47379, 17032, 15147, 1, 1, 1, 98, 0,
  16, 86641, 34245, 21870, 13881, 1, 0, 1, 98, 0,
]);

cost = array2d(Nodes0, Res, [
  0, 0, 0, 0, 0, 0, 0, 0, 0, 0, % no node
  20, 7, 24, 0, 0, 0, 0, 0, 0, 0,
  13, 7, 23, 0, 0, 0, 0, 0, 0, 0,
  10, 9, 25, 0, 0, 0, 0, 0, 0, 0,
]);

cons = array2d(Nodes0, Res, [
  0, 0, 0, 0, 0, 0, 0, 0, 0, 0, % no node
  25, 3, 27, 0, 0, 0, 0, 0, 0, 0,
  50, 37, 41, 0, 0, 0, 0, 0, 0, 0,
  50, 5, 21, 0, 0, 0, 0, 0, 0, 0,
]);

costWeight = 0;
consWeight = 1;

costBudget = 35210;
consBudget = 59353;

depReq = array3d(Comps, Comps, Res, [
  if c1 = frontend0 /\ c2 = backend2 /\ r = N(avail) then
    96
  elseif c1 = frontend1 /\ c2 = backend2 /\ r = N(avail) then
    95
  elseif c1 = frontend0 /\ c2 = backend0 /\ r = N(avail) then
    97
  elseif c1 = frontend0 /\ c2 = backend1 /\ r = N(avail) then
    97
  elseif c1 = frontend1 /\ c2 = backend1 /\ r = N(avail) then
    96
  elseif c1 = frontend1 /\ c2 = backend0 /\ r = N(avail) then
    95
  else
    worstBounds[r]
  endif | c1 in Comps, c2 in Comps, r in Res]);

linkCap = array3d(Nodes0, Nodes0, Res, [
  if ni = 0 \/ nj = 0 then
    bestBounds[r]
  elseif ni = nj /\ r = N(avail) then
    nodeCap[ni,r]
  elseif {ni, nj} = {n1, n3} /\ r = N(avail) then
    99
  elseif {ni, nj} = {n1, n2} /\ r = N(avail) then
    99
  elseif {ni, nj} = {n2, n3} /\ r = N(avail) then
    99
  else
    worstBounds[r]
  endif | ni in Nodes0, nj in Nodes0, r in Res]);

imp = array2d(Comps, Flavs, [
  1, 3, 7,
  3, 8, 10,
  1, 6, 7,
  3, 9, 10,
  4, 5, 6,
  3, 5, 7,
  1, 3, 10,
]);

